(set-logic ALL)
(set-option :produce-models true)
(declare-sort BoundSet 0)
(declare-sort UnboundSet 0)
(declare-fun IsCut (BoundSet) Bool)
(declare-fun IsThisYear (BoundSet) Bool)
(assert (not (=> (exists ((c BoundSet)) (exists ((a BoundSet)) (and (IsCut a) (IsThisYear c)))) (exists ((d BoundSet)) (IsCut d)))))
(check-sat)
(get-model)